(set-option :produce-models true)
(set-logic all)
(declare-fun s0 () string)
(declare-fun s1 () string)
(define-fun s2 () bool (str.suffixof s0 s1))
(define-fun s3 () bool (not s2))
(define-fun s4 () int (str.len s1))
(define-fun s5 () int (str.len s0))
(define-fun s6 () int (- s4 s5))
(define-fun s7 () string (str.substr s1 s6 s5))
(define-fun s8 () bool (= s0 s7))
(define-fun s9 () bool (or s3 s8))
(assert (not s9))
(check-sat)